* ENCODING=ISO-8859-1
NAME          CPLEX
ROWS
 N  obj1    
 G  c1      
 G  c2      
 G  c3      
 G  c4      
 G  c5      
 G  c6      
 G  c7      
 G  c8      
 G  c9      
 G  c10     
 G  c11     
 G  c12     
 G  c13     
 G  c14     
 G  c15     
 G  c16     
 G  c17     
 G  c18     
 G  c19     
 G  c20     
 G  c21     
 G  c22     
 G  c23     
 G  c24     
 G  c25     
 G  c26     
 G  c27     
 G  c28     
 G  c29     
 G  c30     
 G  c31     
 G  c32     
 G  c33     
 G  c34     
 G  c35     
 G  c36     
 G  c37     
 G  c38     
 G  c39     
 G  c40     
 G  c41     
 G  c42     
 G  c43     
 G  c44     
 G  c45     
 G  c46     
 G  c47     
 G  c48     
 G  c49     
 G  c50     
 G  c51     
 G  c52     
 G  c53     
 G  c54     
 G  c55     
 G  c56     
 G  c57     
 G  c58     
 G  c59     
 G  c60     
COLUMNS
    MARK0000  'MARKER'                 'INTORG'
    x1        obj1                            1
    x1        c18                           117
    x2        obj1                            1
    x2        c10                           531
    x2        c11                           214
    x2        c14                           710
    x2        c18                           524
    x2        c25                           387
    x2        c31                           412
    x2        c44                           465
    x2        c49                           813
    x3        obj1                            1
    x3        c4                            890
    x3        c22                           835
    x3        c32                           318
    x3        c51                           738
    x4        obj1                            1
    x4        c14                           425
    x4        c26                           953
    x4        c32                           795
    x4        c54                           880
    x4        c60                           358
    x5        obj1                            1
    x5        c2                            428
    x5        c11                           812
    x5        c19                           587
    x5        c28                           787
    x5        c44                           937
    x5        c58                           763
    x6        obj1                            1
    x6        c8                            949
    x6        c22                           144
    x6        c39                           873
    x6        c55                           578
    x7        obj1                            1
    x7        c27                           201
    x7        c31                           281
    x7        c38                           721
    x7        c41                           850
    x7        c54                           877
    x8        obj1                            1
    x8        c19                           939
    x8        c24                           325
    x8        c35                           919
    x8        c45                           421
    x8        c59                           619
    x9        obj1                            1
    x9        c13                           930
    x9        c21                           122
    x9        c36                           336
    x9        c53                           687
    x9        c59                           884
    x10       obj1                            1
    x10       c5                            151
    x10       c17                           497
    x10       c21                           247
    x10       c25                           394
    x10       c45                           143
    x10       c49                           501
    x10       c54                           797
    x11       obj1                            1
    x11       c1                            282
    x11       c16                           481
    x11       c26                           418
    x11       c40                           735
    x11       c54                           512
    x12       obj1                            1
    x12       c5                            830
    x12       c12                           325
    x12       c33                           122
    x12       c39                           670
    x12       c56                           307
    x12       c57                           943
    x12       c58                           833
    x12       c60                           533
    x13       obj1                            1
    x13       c3                            141
    x13       c27                           888
    x13       c56                           560
    x14       obj1                            1
    x14       c1                            527
    x14       c3                            506
    x14       c6                            354
    x14       c9                            524
    x14       c16                           786
    x14       c22                           350
    x14       c45                           267
    x14       c54                           666
    x14       c59                           158
    x15       obj1                            1
    x15       c20                           544
    x15       c35                           100
    x15       c45                           633
    x15       c53                           994
    x15       c56                           523
    x16       obj1                            1
    x16       c2                            356
    x16       c4                            383
    x16       c9                            727
    x16       c26                           203
    x16       c46                           341
    x16       c48                           631
    x16       c51                           949
    x16       c57                           883
    x17       obj1                            1
    x17       c2                            504
    x17       c6                            751
    x17       c14                           708
    x17       c18                           776
    x17       c22                           848
    x17       c25                           804
    x17       c32                           273
    x17       c36                           401
    x17       c47                           657
    x17       c50                           497
    x17       c51                           602
    x17       c52                           130
    x17       c60                           243
    x18       obj1                            1
    x18       c13                           643
    x18       c19                           657
    x18       c25                           216
    x18       c31                           856
    x18       c36                           576
    x18       c40                           690
    x18       c48                           950
    x18       c54                           856
    x18       c58                           106
    x19       obj1                            1
    x19       c11                           603
    x19       c15                           890
    x19       c20                           375
    x19       c36                           248
    x19       c38                           742
    x19       c47                           833
    x19       c54                           188
    x20       obj1                            1
    x20       c6                            328
    x20       c8                            634
    x20       c11                           966
    x20       c17                           502
    x20       c24                           183
    x20       c31                           511
    x20       c49                           354
    x21       obj1                            1
    x21       c24                           119
    x21       c44                           295
    x22       obj1                            1
    x22       c3                            454
    x22       c8                            621
    x22       c14                           210
    x22       c23                           250
    x22       c36                           301
    x22       c43                           988
    x22       c52                           403
    x23       obj1                            1
    x23       c25                           711
    x23       c27                           442
    x23       c39                           681
    x23       c41                           349
    x23       c48                           910
    x23       c49                           240
    x24       obj1                            1
    x24       c11                           283
    x24       c15                           336
    x24       c27                           889
    x24       c42                           127
    x24       c43                           448
    x25       obj1                            1
    x25       c5                            596
    x25       c8                            438
    x25       c21                           156
    x25       c25                           272
    x25       c28                           351
    x25       c46                           841
    x25       c49                           744
    x26       obj1                            1
    x26       c1                            124
    x26       c14                           200
    x26       c23                           829
    x26       c29                           525
    x26       c33                           317
    x26       c40                           187
    x26       c47                           883
    x26       c54                           968
    x27       obj1                            1
    x27       c6                            879
    x27       c7                            552
    x27       c9                            552
    x27       c25                           488
    x27       c33                           487
    x27       c42                           749
    x28       obj1                            1
    x28       c26                           138
    x28       c34                           693
    x28       c39                           531
    x28       c42                           942
    x28       c59                           588
    x29       obj1                            1
    x29       c6                            198
    x29       c53                           345
    x29       c55                           271
    x29       c57                           666
    x30       obj1                            1
    x30       c10                           377
    x30       c11                           594
    x30       c42                           102
    x30       c43                           756
    x30       c44                           607
    x30       c51                           629
    x30       c53                           649
    x31       obj1                            1
    x31       c12                           694
    x31       c17                           725
    x31       c31                           328
    x31       c39                           660
    x31       c47                           261
    x31       c58                           238
    x32       obj1                            1
    x32       c4                            696
    x32       c11                           461
    x32       c23                           908
    x32       c28                           394
    x32       c30                           514
    x32       c32                           839
    x32       c37                           224
    x32       c39                           759
    x32       c51                           734
    x33       obj1                            1
    x33       c11                           591
    x33       c30                           460
    x33       c35                           536
    x33       c39                           431
    x33       c43                           349
    x33       c48                           469
    x34       obj1                            1
    x34       c25                           883
    x34       c26                           137
    x34       c37                           389
    x34       c38                           974
    x34       c55                           448
    x34       c56                           188
    x34       c58                           370
    x35       obj1                            1
    x35       c21                           587
    x35       c28                           191
    x35       c37                           285
    x35       c40                           246
    x36       obj1                            1
    x36       c17                           419
    x36       c22                           637
    x36       c40                           746
    x36       c57                           218
    x36       c60                           521
    x37       obj1                            1
    x37       c33                           312
    x37       c38                           176
    x38       obj1                            1
    x38       c17                           848
    x38       c21                           606
    x38       c40                           520
    x38       c51                           142
    x38       c52                           613
    x38       c58                           683
    x39       obj1                            1
    x39       c1                            367
    x39       c2                            499
    x39       c4                            890
    x39       c8                            746
    x39       c23                           830
    x39       c48                           456
    x40       obj1                            1
    x40       c4                            618
    x40       c18                           776
    x40       c19                           731
    x40       c26                           729
    x40       c31                           994
    x40       c34                           489
    x40       c37                           754
    x40       c52                           212
    x41       obj1                            1
    x41       c10                           527
    x41       c18                           743
    x41       c21                           854
    x41       c24                           491
    x41       c39                           721
    x41       c50                           573
    x41       c52                           547
    x42       obj1                            1
    x42       c7                            174
    x42       c15                           693
    x42       c21                           233
    x42       c34                           649
    x42       c40                           353
    x42       c49                           819
    x42       c52                           192
    x43       obj1                            1
    x43       c1                            820
    x43       c5                            578
    x43       c9                            206
    x43       c15                           961
    x43       c36                           790
    x43       c46                           421
    x43       c50                           963
    x43       c51                           596
    x43       c60                           246
    x44       obj1                            1
    x44       c7                            402
    x44       c18                           260
    x44       c23                           889
    x44       c32                           566
    x44       c35                           344
    x44       c40                           347
    x44       c46                           417
    x44       c48                           825
    x44       c57                           842
    x45       obj1                            1
    x45       c9                            564
    x45       c12                           660
    x45       c21                           675
    x45       c30                           653
    x45       c60                           493
    x46       obj1                            1
    x46       c6                            260
    x46       c14                           733
    x46       c29                           712
    x46       c33                           285
    x47       obj1                            1
    x47       c11                           603
    x47       c19                           988
    x47       c37                           639
    x47       c38                           952
    x47       c41                           693
    x48       obj1                            1
    x48       c1                            450
    x48       c3                            242
    x48       c24                           337
    x48       c56                           916
    x49       obj1                            1
    x49       c1                            179
    x49       c20                           703
    x49       c21                           249
    x49       c29                           705
    x49       c51                           845
    x50       obj1                            1
    x50       c12                           241
    x50       c16                           924
    x50       c36                           247
    x50       c60                           340
    x51       obj1                            1
    x51       c19                           294
    x51       c22                           853
    x51       c32                           632
    x51       c41                           446
    x51       c57                           131
    x52       obj1                            1
    x52       c1                            727
    x52       c43                           143
    x52       c49                           522
    x52       c56                           925
    x52       c57                           352
    x53       obj1                            1
    x53       c13                           471
    x53       c23                           384
    x53       c27                           267
    x53       c30                           261
    x53       c46                           757
    x53       c60                           217
    x54       obj1                            1
    x54       c2                            165
    x54       c19                           395
    x54       c25                           980
    x54       c26                           326
    x54       c30                           476
    x54       c34                           643
    x54       c42                           542
    x54       c55                           366
    x54       c58                           289
    x55       obj1                            1
    x55       c3                            838
    x55       c19                           919
    x55       c24                           800
    x55       c28                           437
    x55       c33                           122
    x55       c44                           765
    x55       c58                           829
    x56       obj1                            1
    x56       c1                            123
    x56       c6                            540
    x56       c17                           784
    x56       c30                           126
    x56       c31                           441
    x56       c41                           841
    x56       c42                           213
    x56       c46                           971
    x57       obj1                            1
    x57       c7                            648
    x57       c10                           404
    x57       c14                           141
    x57       c31                           490
    x57       c40                           747
    x57       c50                           871
    x57       c58                           652
    x58       obj1                            1
    x58       c18                           635
    x58       c28                           545
    x58       c32                           535
    x58       c41                           531
    x58       c42                           195
    x58       c46                           769
    x58       c53                           849
    x58       c57                           543
    x59       obj1                            1
    x59       c17                           672
    x59       c18                           319
    x59       c20                           987
    x59       c29                           949
    x59       c38                           883
    x59       c57                           707
    x60       obj1                            1
    x60       c17                           272
    x60       c23                           638
    x60       c27                           568
    x60       c39                           375
    x60       c47                           170
    x60       c48                           202
    x60       c51                           551
    MARK0001  'MARKER'                 'INTEND'
RHS
    rhs       c1                           1800
    rhs       c2                            976
    rhs       c3                           1091
    rhs       c4                           1739
    rhs       c5                           1078
    rhs       c6                           1655
    rhs       c7                            888
    rhs       c8                           1694
    rhs       c9                           1287
    rhs       c10                           920
    rhs       c11                          2564
    rhs       c12                           960
    rhs       c13                          1022
    rhs       c14                          1564
    rhs       c15                          1440
    rhs       c16                          1096
    rhs       c17                          2360
    rhs       c18                          2075
    rhs       c19                          2755
    rhs       c20                          1305
    rhs       c21                          1865
    rhs       c22                          1834
    rhs       c23                          2364
    rhs       c24                          1128
    rhs       c25                          2568
    rhs       c26                          1452
    rhs       c27                          1628
    rhs       c28                          1353
    rhs       c29                          1446
    rhs       c30                          1245
    rhs       c31                          2157
    rhs       c32                          1979
    rhs       c33                           823
    rhs       c34                          1237
    rhs       c35                           950
    rhs       c36                          1450
    rhs       c37                          1146
    rhs       c38                          2224
    rhs       c39                          2851
    rhs       c40                          2286
    rhs       c41                          1855
    rhs       c42                          1435
    rhs       c43                          1342
    rhs       c44                          1535
    rhs       c45                           732
    rhs       c46                          2259
    rhs       c47                          1402
    rhs       c48                          2222
    rhs       c49                          1997
    rhs       c50                          1452
    rhs       c51                          2893
    rhs       c52                          1049
    rhs       c53                          1762
    rhs       c54                          2872
    rhs       c55                           832
    rhs       c56                          1710
    rhs       c57                          2643
    rhs       c58                          2382
    rhs       c59                          1125
    rhs       c60                          1476
BOUNDS
 LI bnd       x1        0
 LI bnd       x2        0
 LI bnd       x3        0
 LI bnd       x4        0
 LI bnd       x5        0
 LI bnd       x6        0
 LI bnd       x7        0
 LI bnd       x8        0
 LI bnd       x9        0
 LI bnd       x10       0
 LI bnd       x11       0
 LI bnd       x12       0
 LI bnd       x13       0
 LI bnd       x14       0
 LI bnd       x15       0
 LI bnd       x16       0
 LI bnd       x17       0
 LI bnd       x18       0
 LI bnd       x19       0
 LI bnd       x20       0
 LI bnd       x21       0
 LI bnd       x22       0
 LI bnd       x23       0
 LI bnd       x24       0
 LI bnd       x25       0
 LI bnd       x26       0
 LI bnd       x27       0
 LI bnd       x28       0
 LI bnd       x29       0
 LI bnd       x30       0
 LI bnd       x31       0
 LI bnd       x32       0
 LI bnd       x33       0
 LI bnd       x34       0
 LI bnd       x35       0
 LI bnd       x36       0
 LI bnd       x37       0
 LI bnd       x38       0
 LI bnd       x39       0
 LI bnd       x40       0
 LI bnd       x41       0
 LI bnd       x42       0
 LI bnd       x43       0
 LI bnd       x44       0
 LI bnd       x45       0
 LI bnd       x46       0
 LI bnd       x47       0
 LI bnd       x48       0
 LI bnd       x49       0
 LI bnd       x50       0
 LI bnd       x51       0
 LI bnd       x52       0
 LI bnd       x53       0
 LI bnd       x54       0
 LI bnd       x55       0
 LI bnd       x56       0
 LI bnd       x57       0
 LI bnd       x58       0
 LI bnd       x59       0
 LI bnd       x60       0
ENDATA
